60
1 0 9
2 0 7
2 1 13
3 0 2
3 1 10
3 2 13
4 0 4
4 1 2
4 2 1
4 3 6
5 0 7
5 1 12
5 2 2
5 3 13
5 4 4
6 0 5
6 1 10
6 2 2
6 3 12
6 4 12
6 5 10
7 0 5
7 1 7
7 2 10
7 3 13
7 4 13
7 5 4
7 6 10
8 0 7
8 1 12
8 2 8
8 3 13
8 4 11
8 5 6
8 6 13
8 7 8
9 0 1
9 1 12
9 2 4
9 3 13
9 4 11
9 5 12
9 6 3
9 7 10
9 8 5
10 0 13
10 1 13
10 2 13
10 3 7
10 4 8
10 5 13
10 6 2
10 7 11
10 8 3
10 9 5
11 0 9
11 1 11
11 2 3
11 3 13
11 4 13
11 5 11
11 6 2
11 7 12
11 8 9
11 9 8
11 10 1
12 0 12
12 1 12
12 2 2
12 3 3
12 4 8
12 5 11
12 6 4
12 7 10
12 8 8
12 9 6
12 10 6
12 11 12
13 0 11
13 1 13
13 2 1
13 3 11
13 4 6
13 5 8
13 6 2
13 7 5
13 8 12
13 9 2
13 10 9
13 11 12
13 12 11
14 0 8
14 1 13
14 2 5
14 3 3
14 4 3
14 5 3
14 6 7
14 7 1
14 8 5
14 9 3
14 10 9
14 11 7
14 12 8
14 13 13
15 0 1
15 1 12
15 2 12
15 3 1
15 4 5
15 5 8
15 6 13
15 7 9
15 8 13
15 9 8
15 10 13
15 11 13
15 12 11
15 13 11
15 14 3
16 0 11
16 1 3
16 2 13
16 3 3
16 4 4
16 5 9
16 6 2
16 7 13
16 8 1
16 9 8
16 10 9
16 11 7
16 12 8
16 13 9
16 14 5
16 15 9
17 0 13
17 1 6
17 2 5
17 3 5
17 4 6
17 5 9
17 6 3
17 7 9
17 8 11
17 9 9
17 10 5
17 11 4
17 12 13
17 13 1
17 14 6
17 15 10
17 16 12
18 0 6
18 1 13
18 2 3
18 3 4
18 4 7
18 5 3
18 6 1
18 7 2
18 8 3
18 9 10
18 10 8
18 11 7
18 12 7
18 13 4
18 14 7
18 15 1
18 16 6
18 17 9
19 0 11
19 1 9
19 2 9
19 3 4
19 4 8
19 5 12
19 6 9
19 7 10
19 8 6
19 9 4
19 10 2
19 11 4
19 12 1
19 13 10
19 14 13
19 15 11
19 16 12
19 17 10
19 18 10
20 0 1
20 1 8
20 2 1
20 3 2
20 4 2
20 5 12
20 6 7
20 7 2
20 8 9
20 9 7
20 10 12
20 11 6
20 12 2
20 13 9
20 14 11
20 15 13
20 16 13
20 17 10
20 18 6
20 19 2
21 0 11
21 1 2
21 2 11
21 3 9
21 4 3
21 5 10
21 6 10
21 7 7
21 8 13
21 9 7
21 10 3
21 11 2
21 12 8
21 13 9
21 14 2
21 15 9
21 16 12
21 17 2
21 18 3
21 19 11
21 20 3
22 0 5
22 1 7
22 2 2
22 3 7
22 4 9
22 5 12
22 6 5
22 7 7
22 8 4
22 9 5
22 10 9
22 11 10
22 12 6
22 13 6
22 14 9
22 15 2
22 16 11
22 17 13
22 18 3
22 19 10
22 20 13
22 21 10
23 0 13
23 1 13
23 2 8
23 3 11
23 4 1
23 5 8
23 6 5
23 7 10
23 8 12
23 9 12
23 10 12
23 11 11
23 12 5
23 13 10
23 14 4
23 15 5
23 16 9
23 17 8
23 18 13
23 19 4
23 20 13
23 21 1
23 22 3
24 0 12
24 1 8
24 2 11
24 3 2
24 4 5
24 5 13
24 6 6
24 7 13
24 8 3
24 9 10
24 10 2
24 11 13
24 12 7
24 13 9
24 14 13
24 15 1
24 16 1
24 17 3
24 18 7
24 19 12
24 20 5
24 21 9
24 22 6
24 23 6
25 0 13
25 1 13
25 2 10
25 3 3
25 4 4
25 5 4
25 6 13
25 7 3
25 8 6
25 9 8
25 10 6
25 11 6
25 12 9
25 13 6
25 14 3
25 15 4
25 16 9
25 17 13
25 18 8
25 19 13
25 20 11
25 21 1
25 22 6
25 23 10
25 24 9
26 0 12
26 1 5
26 2 6
26 3 2
26 4 12
26 5 6
26 6 5
26 7 13
26 8 12
26 9 3
26 10 6
26 11 5
26 12 13
26 13 5
26 14 4
26 15 4
26 16 12
26 17 3
26 18 4
26 19 11
26 20 3
26 21 9
26 22 2
26 23 13
26 24 6
26 25 10
27 0 6
27 1 13
27 2 1
27 3 5
27 4 5
27 5 2
27 6 3
27 7 13
27 8 7
27 9 10
27 10 2
27 11 2
27 12 11
27 13 8
27 14 8
27 15 1
27 16 10
27 17 8
27 18 8
27 19 11
27 20 5
27 21 6
27 22 6
27 23 3
27 24 8
27 25 2
27 26 12
28 0 10
28 1 10
28 2 9
28 3 5
28 4 2
28 5 2
28 6 9
28 7 3
28 8 11
28 9 5
28 10 1
28 11 12
28 12 8
28 13 3
28 14 12
28 15 12
28 16 13
28 17 3
28 18 8
28 19 2
28 20 8
28 21 10
28 22 2
28 23 3
28 24 13
28 25 12
28 26 7
28 27 10
29 0 10
29 1 5
29 2 4
29 3 8
29 4 12
29 5 3
29 6 7
29 7 9
29 8 4
29 9 6
29 10 3
29 11 6
29 12 2
29 13 1
29 14 4
29 15 11
29 16 1
29 17 11
29 18 1
29 19 2
29 20 6
29 21 12
29 22 2
29 23 3
29 24 6
29 25 1
29 26 6
29 27 1
29 28 12
30 0 9
30 1 13
30 2 3
30 3 5
30 4 5
30 5 7
30 6 8
30 7 4
30 8 13
30 9 12
30 10 12
30 11 4
30 12 5
30 13 12
30 14 11
30 15 9
30 16 3
30 17 2
30 18 1
30 19 4
30 20 7
30 21 1
30 22 12
30 23 6
30 24 3
30 25 3
30 26 1
30 27 7
30 28 1
30 29 5
31 0 6
31 1 7
31 2 5
31 3 3
31 4 2
31 5 2
31 6 10
31 7 12
31 8 13
31 9 11
31 10 9
31 11 1
31 12 8
31 13 7
31 14 11
31 15 3
31 16 3
31 17 5
31 18 2
31 19 6
31 20 13
31 21 12
31 22 8
31 23 1
31 24 10
31 25 1
31 26 9
31 27 7
31 28 9
31 29 5
31 30 5
32 0 7
32 1 2
32 2 7
32 3 3
32 4 9
32 5 2
32 6 9
32 7 9
32 8 6
32 9 3
32 10 9
32 11 8
32 12 2
32 13 4
32 14 3
32 15 7
32 16 7
32 17 10
32 18 8
32 19 9
32 20 9
32 21 6
32 22 2
32 23 4
32 24 7
32 25 9
32 26 5
32 27 13
32 28 1
32 29 11
32 30 4
32 31 11
33 0 2
33 1 1
33 2 3
33 3 9
33 4 4
33 5 12
33 6 5
33 7 12
33 8 13
33 9 2
33 10 12
33 11 5
33 12 6
33 13 12
33 14 5
33 15 5
33 16 11
33 17 10
33 18 8
33 19 8
33 20 5
33 21 13
33 22 2
33 23 1
33 24 10
33 25 6
33 26 9
33 27 8
33 28 6
33 29 7
33 30 6
33 31 10
33 32 8
34 0 4
34 1 9
34 2 3
34 3 4
34 4 13
34 5 9
34 6 9
34 7 12
34 8 2
34 9 2
34 10 12
34 11 4
34 12 6
34 13 10
34 14 6
34 15 7
34 16 2
34 17 3
34 18 8
34 19 11
34 20 9
34 21 13
34 22 2
34 23 9
34 24 10
34 25 10
34 26 3
34 27 4
34 28 10
34 29 1
34 30 13
34 31 2
34 32 2
34 33 10
35 0 9
35 1 9
35 2 2
35 3 13
35 4 3
35 5 10
35 6 4
35 7 4
35 8 8
35 9 8
35 10 10
35 11 8
35 12 5
35 13 9
35 14 3
35 15 8
35 16 6
35 17 11
35 18 1
35 19 1
35 20 12
35 21 5
35 22 4
35 23 12
35 24 10
35 25 13
35 26 1
35 27 7
35 28 4
35 29 6
35 30 4
35 31 9
35 32 4
35 33 1
35 34 1
36 0 13
36 1 6
36 2 8
36 3 8
36 4 13
36 5 5
36 6 10
36 7 1
36 8 2
36 9 3
36 10 1
36 11 5
36 12 12
36 13 6
36 14 4
36 15 3
36 16 12
36 17 11
36 18 11
36 19 11
36 20 1
36 21 10
36 22 3
36 23 5
36 24 8
36 25 1
36 26 5
36 27 2
36 28 9
36 29 13
36 30 13
36 31 5
36 32 10
36 33 5
36 34 5
36 35 11
37 0 9
37 1 13
37 2 12
37 3 11
37 4 2
37 5 12
37 6 9
37 7 8
37 8 9
37 9 12
37 10 9
37 11 11
37 12 9
37 13 12
37 14 6
37 15 10
37 16 3
37 17 1
37 18 11
37 19 6
37 20 9
37 21 13
37 22 7
37 23 11
37 24 7
37 25 4
37 26 2
37 27 11
37 28 13
37 29 5
37 30 8
37 31 5
37 32 11
37 33 2
37 34 1
37 35 2
37 36 13
38 0 1
38 1 6
38 2 5
38 3 11
38 4 2
38 5 3
38 6 11
38 7 1
38 8 8
38 9 1
38 10 7
38 11 2
38 12 7
38 13 3
38 14 10
38 15 9
38 16 11
38 17 2
38 18 6
38 19 8
38 20 12
38 21 5
38 22 5
38 23 12
38 24 1
38 25 2
38 26 7
38 27 10
38 28 8
38 29 2
38 30 7
38 31 10
38 32 9
38 33 9
38 34 12
38 35 1
38 36 12
38 37 9
39 0 13
39 1 7
39 2 4
39 3 12
39 4 10
39 5 13
39 6 11
39 7 5
39 8 10
39 9 4
39 10 12
39 11 5
39 12 12
39 13 11
39 14 4
39 15 1
39 16 6
39 17 11
39 18 7
39 19 10
39 20 3
39 21 4
39 22 4
39 23 6
39 24 7
39 25 7
39 26 8
39 27 3
39 28 3
39 29 11
39 30 2
39 31 1
39 32 5
39 33 8
39 34 11
39 35 2
39 36 5
39 37 3
39 38 10
40 0 12
40 1 13
40 2 7
40 3 9
40 4 4
40 5 9
40 6 3
40 7 7
40 8 12
40 9 11
40 10 13
40 11 11
40 12 7
40 13 1
40 14 8
40 15 11
40 16 5
40 17 7
40 18 4
40 19 4
40 20 3
40 21 10
40 22 8
40 23 7
40 24 6
40 25 5
40 26 10
40 27 8
40 28 11
40 29 10
40 30 10
40 31 2
40 32 7
40 33 8
40 34 1
40 35 11
40 36 4
40 37 6
40 38 9
40 39 10
41 0 7
41 1 4
41 2 9
41 3 8
41 4 2
41 5 6
41 6 5
41 7 13
41 8 12
41 9 3
41 10 6
41 11 6
41 12 12
41 13 8
41 14 11
41 15 5
41 16 13
41 17 1
41 18 12
41 19 8
41 20 11
41 21 13
41 22 2
41 23 7
41 24 11
41 25 10
41 26 4
41 27 5
41 28 1
41 29 6
41 30 5
41 31 11
41 32 4
41 33 3
41 34 11
41 35 9
41 36 10
41 37 8
41 38 1
41 39 7
41 40 11
42 0 5
42 1 8
42 2 10
42 3 3
42 4 11
42 5 5
42 6 12
42 7 8
42 8 1
42 9 3
42 10 8
42 11 8
42 12 10
42 13 10
42 14 10
42 15 10
42 16 8
42 17 11
42 18 10
42 19 9
42 20 7
42 21 9
42 22 2
42 23 7
42 24 3
42 25 8
42 26 11
42 27 6
42 28 2
42 29 1
42 30 13
42 31 8
42 32 4
42 33 13
42 34 6
42 35 4
42 36 5
42 37 5
42 38 5
42 39 7
42 40 13
42 41 7
43 0 9
43 1 7
43 2 12
43 3 13
43 4 5
43 5 9
43 6 9
43 7 12
43 8 2
43 9 13
43 10 8
43 11 10
43 12 4
43 13 12
43 14 13
43 15 11
43 16 5
43 17 3
43 18 7
43 19 10
43 20 12
43 21 6
43 22 11
43 23 7
43 24 1
43 25 7
43 26 7
43 27 9
43 28 2
43 29 12
43 30 3
43 31 5
43 32 8
43 33 11
43 34 3
43 35 4
43 36 12
43 37 4
43 38 13
43 39 8
43 40 5
43 41 8
43 42 5
44 0 2
44 1 7
44 2 3
44 3 8
44 4 5
44 5 12
44 6 2
44 7 1
44 8 9
44 9 1
44 10 1
44 11 10
44 12 11
44 13 10
44 14 6
44 15 11
44 16 11
44 17 1
44 18 9
44 19 9
44 20 1
44 21 12
44 22 4
44 23 10
44 24 5
44 25 10
44 26 2
44 27 1
44 28 12
44 29 7
44 30 1
44 31 12
44 32 5
44 33 6
44 34 12
44 35 6
44 36 9
44 37 12
44 38 6
44 39 4
44 40 12
44 41 7
44 42 3
44 43 7
45 0 11
45 1 9
45 2 6
45 3 3
45 4 4
45 5 5
45 6 12
45 7 4
45 8 2
45 9 1
45 10 7
45 11 12
45 12 7
45 13 8
45 14 9
45 15 13
45 16 11
45 17 7
45 18 2
45 19 5
45 20 11
45 21 12
45 22 13
45 23 13
45 24 9
45 25 4
45 26 11
45 27 11
45 28 10
45 29 12
45 30 2
45 31 10
45 32 4
45 33 9
45 34 5
45 35 6
45 36 6
45 37 13
45 38 11
45 39 9
45 40 4
45 41 10
45 42 2
45 43 11
45 44 5
46 0 5
46 1 2
46 2 2
46 3 9
46 4 11
46 5 10
46 6 7
46 7 1
46 8 5
46 9 2
46 10 13
46 11 5
46 12 4
46 13 9
46 14 11
46 15 5
46 16 6
46 17 7
46 18 4
46 19 5
46 20 12
46 21 1
46 22 1
46 23 1
46 24 10
46 25 1
46 26 10
46 27 5
46 28 11
46 29 12
46 30 4
46 31 8
46 32 6
46 33 3
46 34 7
46 35 1
46 36 13
46 37 5
46 38 11
46 39 13
46 40 10
46 41 4
46 42 8
46 43 4
46 44 12
46 45 13
47 0 10
47 1 11
47 2 1
47 3 2
47 4 5
47 5 11
47 6 9
47 7 4
47 8 5
47 9 3
47 10 2
47 11 12
47 12 11
47 13 12
47 14 7
47 15 12
47 16 11
47 17 6
47 18 1
47 19 9
47 20 8
47 21 4
47 22 6
47 23 12
47 24 5
47 25 12
47 26 1
47 27 3
47 28 10
47 29 5
47 30 9
47 31 7
47 32 1
47 33 12
47 34 12
47 35 3
47 36 10
47 37 13
47 38 10
47 39 1
47 40 1
47 41 6
47 42 4
47 43 1
47 44 6
47 45 3
47 46 13
48 0 7
48 1 2
48 2 7
48 3 10
48 4 11
48 5 3
48 6 3
48 7 4
48 8 2
48 9 4
48 10 9
48 11 11
48 12 1
48 13 13
48 14 7
48 15 3
48 16 5
48 17 10
48 18 10
48 19 13
48 20 5
48 21 12
48 22 11
48 23 6
48 24 9
48 25 12
48 26 12
48 27 1
48 28 4
48 29 11
48 30 1
48 31 8
48 32 13
48 33 2
48 34 6
48 35 8
48 36 10
48 37 8
48 38 8
48 39 8
48 40 9
48 41 11
48 42 12
48 43 1
48 44 5
48 45 12
48 46 6
48 47 2
49 0 6
49 1 3
49 2 9
49 3 10
49 4 4
49 5 13
49 6 6
49 7 11
49 8 11
49 9 1
49 10 12
49 11 4
49 12 4
49 13 2
49 14 8
49 15 1
49 16 1
49 17 12
49 18 5
49 19 5
49 20 13
49 21 9
49 22 4
49 23 3
49 24 3
49 25 6
49 26 3
49 27 12
49 28 3
49 29 1
49 30 12
49 31 5
49 32 5
49 33 9
49 34 7
49 35 13
49 36 1
49 37 6
49 38 12
49 39 11
49 40 13
49 41 8
49 42 4
49 43 11
49 44 12
49 45 1
49 46 11
49 47 11
49 48 9
50 0 4
50 1 10
50 2 4
50 3 6
50 4 4
50 5 3
50 6 8
50 7 9
50 8 13
50 9 3
50 10 13
50 11 7
50 12 6
50 13 10
50 14 1
50 15 13
50 16 12
50 17 10
50 18 2
50 19 4
50 20 9
50 21 8
50 22 7
50 23 4
50 24 13
50 25 6
50 26 11
50 27 3
50 28 11
50 29 2
50 30 11
50 31 9
50 32 6
50 33 13
50 34 10
50 35 10
50 36 2
50 37 9
50 38 3
50 39 4
50 40 12
50 41 10
50 42 4
50 43 1
50 44 3
50 45 7
50 46 13
50 47 12
50 48 12
50 49 6
51 0 4
51 1 3
51 2 6
51 3 4
51 4 13
51 5 13
51 6 9
51 7 10
51 8 12
51 9 13
51 10 8
51 11 5
51 12 1
51 13 2
51 14 8
51 15 2
51 16 2
51 17 1
51 18 3
51 19 6
51 20 6
51 21 12
51 22 7
51 23 1
51 24 12
51 25 8
51 26 5
51 27 12
51 28 9
51 29 8
51 30 10
51 31 9
51 32 8
51 33 12
51 34 12
51 35 3
51 36 11
51 37 3
51 38 3
51 39 3
51 40 1
51 41 5
51 42 12
51 43 13
51 44 6
51 45 8
51 46 12
51 47 5
51 48 2
51 49 10
51 50 9
52 0 13
52 1 12
52 2 1
52 3 9
52 4 11
52 5 7
52 6 1
52 7 4
52 8 7
52 9 5
52 10 6
52 11 10
52 12 10
52 13 13
52 14 7
52 15 1
52 16 8
52 17 3
52 18 7
52 19 6
52 20 6
52 21 5
52 22 5
52 23 13
52 24 1
52 25 1
52 26 2
52 27 8
52 28 11
52 29 9
52 30 12
52 31 4
52 32 6
52 33 6
52 34 12
52 35 9
52 36 8
52 37 12
52 38 11
52 39 7
52 40 9
52 41 5
52 42 13
52 43 9
52 44 12
52 45 13
52 46 4
52 47 6
52 48 3
52 49 9
52 50 11
52 51 4
53 0 11
53 1 5
53 2 13
53 3 9
53 4 11
53 5 5
53 6 7
53 7 3
53 8 3
53 9 5
53 10 3
53 11 4
53 12 1
53 13 9
53 14 12
53 15 9
53 16 8
53 17 2
53 18 11
53 19 6
53 20 11
53 21 4
53 22 13
53 23 1
53 24 1
53 25 1
53 26 10
53 27 11
53 28 13
53 29 12
53 30 8
53 31 9
53 32 8
53 33 11
53 34 4
53 35 9
53 36 5
53 37 4
53 38 5
53 39 9
53 40 6
53 41 4
53 42 5
53 43 10
53 44 13
53 45 7
53 46 6
53 47 5
53 48 2
53 49 9
53 50 6
53 51 10
53 52 6
54 0 10
54 1 9
54 2 12
54 3 6
54 4 8
54 5 12
54 6 8
54 7 3
54 8 5
54 9 1
54 10 8
54 11 2
54 12 10
54 13 7
54 14 10
54 15 2
54 16 5
54 17 5
54 18 7
54 19 3
54 20 10
54 21 13
54 22 8
54 23 12
54 24 13
54 25 4
54 26 11
54 27 9
54 28 4
54 29 3
54 30 4
54 31 5
54 32 2
54 33 12
54 34 7
54 35 2
54 36 5
54 37 5
54 38 13
54 39 4
54 40 11
54 41 5
54 42 6
54 43 13
54 44 5
54 45 6
54 46 9
54 47 12
54 48 1
54 49 3
54 50 2
54 51 1
54 52 8
54 53 13
55 0 13
55 1 9
55 2 11
55 3 9
55 4 13
55 5 1
55 6 9
55 7 4
55 8 10
55 9 11
55 10 4
55 11 4
55 12 12
55 13 13
55 14 3
55 15 7
55 16 2
55 17 2
55 18 3
55 19 8
55 20 3
55 21 3
55 22 7
55 23 4
55 24 10
55 25 13
55 26 7
55 27 3
55 28 9
55 29 3
55 30 5
55 31 6
55 32 1
55 33 12
55 34 3
55 35 7
55 36 6
55 37 6
55 38 3
55 39 5
55 40 13
55 41 10
55 42 12
55 43 5
55 44 8
55 45 12
55 46 10
55 47 10
55 48 2
55 49 7
55 50 12
55 51 3
55 52 4
55 53 4
55 54 8
56 0 13
56 1 9
56 2 5
56 3 6
56 4 12
56 5 6
56 6 2
56 7 6
56 8 4
56 9 9
56 10 11
56 11 2
56 12 5
56 13 10
56 14 10
56 15 3
56 16 13
56 17 2
56 18 11
56 19 8
56 20 8
56 21 3
56 22 13
56 23 12
56 24 5
56 25 6
56 26 11
56 27 12
56 28 10
56 29 2
56 30 7
56 31 12
56 32 7
56 33 9
56 34 13
56 35 5
56 36 8
56 37 12
56 38 8
56 39 1
56 40 9
56 41 13
56 42 9
56 43 8
56 44 10
56 45 9
56 46 9
56 47 4
56 48 7
56 49 12
56 50 9
56 51 2
56 52 11
56 53 5
56 54 7
56 55 10
57 0 1
57 1 10
57 2 6
57 3 2
57 4 7
57 5 13
57 6 1
57 7 9
57 8 9
57 9 13
57 10 8
57 11 7
57 12 4
57 13 13
57 14 9
57 15 9
57 16 13
57 17 13
57 18 8
57 19 9
57 20 6
57 21 4
57 22 10
57 23 5
57 24 11
57 25 7
57 26 12
57 27 6
57 28 2
57 29 11
57 30 6
57 31 1
57 32 12
57 33 6
57 34 12
57 35 2
57 36 4
57 37 5
57 38 12
57 39 2
57 40 7
57 41 8
57 42 5
57 43 7
57 44 3
57 45 12
57 46 1
57 47 1
57 48 3
57 49 5
57 50 13
57 51 8
57 52 3
57 53 13
57 54 9
57 55 6
57 56 5
58 0 1
58 1 7
58 2 13
58 3 5
58 4 9
58 5 3
58 6 13
58 7 5
58 8 4
58 9 2
58 10 12
58 11 12
58 12 10
58 13 7
58 14 1
58 15 7
58 16 9
58 17 7
58 18 13
58 19 4
58 20 12
58 21 2
58 22 5
58 23 11
58 24 3
58 25 9
58 26 1
58 27 6
58 28 12
58 29 7
58 30 10
58 31 10
58 32 5
58 33 10
58 34 7
58 35 10
58 36 9
58 37 3
58 38 8
58 39 12
58 40 6
58 41 5
58 42 3
58 43 12
58 44 7
58 45 6
58 46 6
58 47 7
58 48 9
58 49 13
58 50 2
58 51 1
58 52 11
58 53 1
58 54 5
58 55 4
58 56 3
58 57 12
59 0 3
59 1 12
59 2 11
59 3 7
59 4 10
59 5 7
59 6 8
59 7 8
59 8 13
59 9 9
59 10 2
59 11 7
59 12 11
59 13 7
59 14 7
59 15 5
59 16 8
59 17 3
59 18 2
59 19 12
59 20 1
59 21 1
59 22 5
59 23 4
59 24 7
59 25 4
59 26 9
59 27 2
59 28 9
59 29 10
59 30 12
59 31 10
59 32 4
59 33 2
59 34 8
59 35 9
59 36 1
59 37 6
59 38 13
59 39 8
59 40 11
59 41 3
59 42 4
59 43 9
59 44 11
59 45 7
59 46 8
59 47 11
59 48 13
59 49 11
59 50 3
59 51 7
59 52 3
59 53 9
59 54 5
59 55 7
59 56 8
59 57 6
59 58 5
